\ This file has been generated by DOcplex
\ ENCODING=ISO-8859-1
\Problem name: dectiger problem

Minimize
 obj: V
Subject To
 c1: V + 25.765625000000 a1_u0_x0 + 50.500000000000 a1_u1_x0
     - 4.500000000000 a1_u2_x0 + 25.765625000000 a1_u0_x1
     - 4.500000000000 a1_u1_x1 + 50.500000000000 a1_u2_x1 >= 0
 c2: V + 50.500000000000 a1_u0_x0 + 25 a1_u1_x0 + 50 a1_u2_x0
     - 4.500000000000 a1_u0_x1 - 10 a1_u1_x1 + 50 a1_u2_x1 >= 0
 c3: V - 4.500000000000 a1_u0_x0 + 50 a1_u1_x0 - 10 a1_u2_x0
     + 50.500000000000 a1_u0_x1 + 50 a1_u1_x1 + 25 a1_u2_x1 >= 0
 c4: a1_u0_x0 + a1_u1_x0 + a1_u2_x0 = 1
 c5: a1_u0_x1 + a1_u1_x1 + a1_u2_x1 = 1

Bounds
       V Free
End
